data/CVRPLIB/Vrp-Set-XML100/instances/XML100_1114_09.vrp
NAME : XML100_1114_09
COMMENT : Generated by Queiroga, Sadykov, Uchoa, and Vidal (2021)
TYPE : CVRP
DIMENSION : 101
EDGE_WEIGHT_TYPE : EUC_2D
CAPACITY : 12
NODE_COORD_SECTION
1    660  586 
2    854  52  
3    942  638 
4    754  760 
5    596  385 
6    155  723 
7    372  439 
8    553  669 
9    770  180 
10   616  1   
11   12   304 
12   213  102 
13   635  355 
14   606  230 
15   195  56  
16   477  500 
17   532  424 
18   665  857 
19   267  500 
20   365  852 
21   832  317 
22   960  727 
23   451  889 
24   388  201 
25   691  637 
26   679  952 
27   931  678 
28   702  82  
29   481  258 
30   275  176 
31   487  313 
32   847  373 
33   246  43  
34   678  684 
35   403  161 
36   490  739 
37   479  319 
38   314  377 
39   403  117 
40   559  707 
41   749  337 
42   505  928 
43   962  886 
44   255  471 
45   402  466 
46   818  264 
47   752  856 
48   319  875 
49   680  24  
50   944  840 
51   810  435 
52   691  429 
53   736  168 
54   863  61  
55   367  660 
56   809  131 
57   985  973 
58   4    121 
59   826  167 
60   497  433 
61   273  74  
62   392  128 
63   881  477 
64   340  703 
65   83   651 
66   762  843 
67   582  653 
68   784  739 
69   379  208 
70   761  719 
71   943  55  
72   984  819 
73   278  901 
74   626  154 
75   312  696 
76   909  349 
77   410  566 
78   683  559 
79   128  993 
80   849  261 
81   227  338 
82   424  8   
83   768  478 
84   994  301 
85   558  768 
86   649  185 
87   301  873 
88   380  356 
89   634  288 
90   973  772 
91   798  162 
92   732  41  
93   515  208 
94   959  429 
95   723  172 
96   768  195 
97   396  790 
98   621  13  
99   510  131 
100  156  77  
101  56   342 
DEMAND_SECTION
1    0   
2    1   
3    1   
4    1   
5    1   
6    1   
7    1   
8    1   
9    1   
10   1   
11   1   
12   1   
13   1   
14   1   
15   1   
16   1   
17   1   
18   1   
19   1   
20   1   
21   1   
22   1   
23   1   
24   1   
25   1   
26   1   
27   1   
28   1   
29   1   
30   1   
31   1   
32   1   
33   1   
34   1   
35   1   
36   1   
37   1   
38   1   
39   1   
40   1   
41   1   
42   1   
43   1   
44   1   
45   1   
46   1   
47   1   
48   1   
49   1   
50   1   
51   1   
52   1   
53   1   
54   1   
55   1   
56   1   
57   1   
58   1   
59   1   
60   1   
61   1   
62   1   
63   1   
64   1   
65   1   
66   1   
67   1   
68   1   
69   1   
70   1   
71   1   
72   1   
73   1   
74   1   
75   1   
76   1   
77   1   
78   1   
79   1   
80   1   
81   1   
82   1   
83   1   
84   1   
85   1   
86   1   
87   1   
88   1   
89   1   
90   1   
91   1   
92   1   
93   1   
94   1   
95   1   
96   1   
97   1   
98   1   
99   1   
100  1   
101  1   
DEPOT_SECTION
1
-1
EOF
