data/CVRPLIB/Vrp-Set-XML100/solutions/XML100_1114_09.sol
Route #1: 62 93 75 83 70 53 1 55 58 90 8 95
Route #2: 33 3 65 46 17 25 41 22 84 39 7 66
Route #3: 87 29 11 60 32 14 99 57 10 100 80 37
Route #4: 12 88 13 85 73 97 9 48 91 27 52 94
Route #5: 2 26 21 89 71 56 42 49 67 69 24
Route #6: 54 63 74 64 5 78 72 86 47 19 96 35
Route #7: 36 30 28 68 23 34 61 38 81 98 92 4
Route #8: 51 40 45 79 20 31 50 82 77
Route #9: 16 59 44 6 43 18 76 15
Cost 11847
